sing20171002.12
TTAA 52121 48698
99005 29857 28003 00072 29056 29004 92762 23229 15008
85497 19441 22512 70145 10246 21506 50586 05544 20503
40758 15531 12509 30969 30357 09020 25096 40761 08527
20244 53134 05042 15423 68947 05063 10658 77559 08018
88112 79156 08547
77136 05566 40740=
TTCC 52125 48698
70864 72367 33008 50064 69172 27530 30372 ///// /////
88999
77999=
TTDD 5212/ 48698
11757 74963 22668 68970 33609 71369 44563 68772 55464
70971 66349 66774
21212 11919 08513 22829 26010 33789 30010 44734 27004
55714 34510 66688 29515 77641 28528 88619 27027 99588
28026 11566 26029 22531 27037 33470 28517 44458 29010
55423 26503 66412 18510 77399 19025 88377 12029 99362
08531 11349 06530=
